k = 104;
b = 52;
AtomicConstraints =  [|
1, 7|
	1, 26|
	1, 27|
	1, 35|
	1, 36|
	1, 41|
	1, 42|
	2, 7|
	2, 8|
	2, 9|
	2, 10|
	2, 26|
	2, 27|
	2, 28|
	2, 29|
	2, 35|
	2, 36|
	2, 37|
	2, 38|
	2, 41|
	2, 42|
	3, 7|
	3, 8|
	3, 9|
	3, 10|
	3, 11|
	3, 26|
	3, 27|
	3, 28|
	3, 29|
	3, 30|
	3, 31|
	3, 35|
	3, 36|
	3, 37|
	3, 38|
	3, 39|
	3, 40|
	3, 41|
	3, 42|
	4, 5|
	4, 6|
	4, 7|
	4, 8|
	4, 9|
	4, 10|
	4, 11|
	4, 26|
	4, 27|
	4, 28|
	4, 29|
	4, 30|
	4, 31|
	4, 32|
	4, 33|
	4, 35|
	4, 36|
	4, 37|
	4, 38|
	4, 39|
	4, 40|
	4, 41|
	4, 42|
	5, 10|
	5, 11|
	12, 20|
	13, 6|
	13, 11|
	14, 5|
	14, 6|
	14, 9|
	14, 10|
	14, 11|
	15, 5|
	15, 6|
	15, 8|
	15, 9|
	15, 10|
	15, 11|
	16, 5|
	16, 6|
	16, 7|
	16, 8|
	16, 9|
	16, 10|
	16, 11|
	17, 5|
	17, 6|
	17, 7|
	17, 8|
	17, 9|
	17, 10|
	17, 11|
	18, 6|
	18, 20|
	19, 5|
	19, 6|
	19, 8|
	19, 9|
	19, 10|
	19, 11|
	19, 13|
	19, 14|
	19, 15|
	56, 5|
	56, 6|
	56, 7|
	56, 8|
	56, 9|
	56, 10|
	56, 11|
	56, 22|
	56, 23|
	56, 54|
	56, 24|
	56, 55|
	56, 53|
	56, 26|
	56, 27|
	56, 28|
	56, 29|
	56, 30|
	56, 31|
	56, 32|
	56, 33|
	56, 34|
	56, 35|
	56, 36|
	56, 37|
	56, 38|
	56, 39|
	56, 40|
	56, 41|
	56, 42|
	22, 5|
	22, 6|
	22, 7|
	22, 8|
	22, 9|
	22, 10|
	22, 11|
	22, 23|
	22, 54|
	22, 24|
	22, 55|
	22, 53|
	22, 26|
	22, 27|
	22, 28|
	22, 29|
	22, 30|
	22, 31|
	22, 32|
	22, 33|
	22, 34|
	22, 35|
	22, 36|
	22, 37|
	22, 38|
	22, 39|
	22, 40|
	22, 41|
	22, 42|
	21, 5|
	21, 6|
	21, 7|
	21, 8|
	21, 9|
	21, 10|
	21, 11|
	21, 56|
	21, 22|
	21, 23|
	21, 54|
	21, 24|
	21, 25|
	21, 55|
	21, 53|
	21, 26|
	21, 27|
	21, 28|
	21, 29|
	21, 30|
	21, 31|
	21, 32|
	21, 33|
	21, 34|
	21, 35|
	21, 36|
	21, 37|
	21, 38|
	21, 39|
	21, 40|
	21, 41|
	21, 42|
	23, 5|
	23, 6|
	23, 7|
	23, 8|
	23, 9|
	23, 10|
	23, 11|
	23, 54|
	23, 24|
	23, 55|
	23, 53|
	23, 26|
	23, 27|
	23, 28|
	23, 29|
	23, 30|
	23, 31|
	23, 32|
	23, 33|
	23, 34|
	23, 35|
	23, 36|
	23, 37|
	23, 38|
	23, 39|
	23, 40|
	23, 41|
	23, 42|
	54, 5|
	54, 6|
	54, 7|
	54, 8|
	54, 9|
	54, 10|
	54, 11|
	54, 24|
	54, 26|
	54, 27|
	54, 28|
	54, 29|
	54, 30|
	54, 31|
	54, 32|
	54, 33|
	54, 34|
	54, 35|
	54, 36|
	54, 37|
	54, 38|
	54, 39|
	54, 40|
	54, 41|
	54, 42|
	24, 5|
	24, 6|
	24, 7|
	24, 8|
	24, 9|
	24, 10|
	24, 11|
	24, 26|
	24, 27|
	24, 28|
	24, 29|
	24, 30|
	24, 31|
	24, 32|
	24, 33|
	24, 34|
	24, 35|
	24, 36|
	24, 37|
	24, 38|
	24, 39|
	24, 40|
	24, 41|
	24, 42|
	25, 5|
	25, 6|
	25, 7|
	25, 8|
	25, 9|
	25, 10|
	25, 11|
	25, 22|
	25, 23|
	25, 54|
	25, 24|
	25, 55|
	25, 53|
	25, 26|
	25, 27|
	25, 28|
	25, 29|
	25, 30|
	25, 31|
	25, 32|
	25, 33|
	25, 34|
	25, 35|
	25, 36|
	25, 37|
	25, 38|
	25, 39|
	25, 40|
	25, 41|
	25, 42|
	55, 5|
	55, 6|
	55, 7|
	55, 8|
	55, 9|
	55, 10|
	55, 11|
	55, 54|
	55, 24|
	55, 53|
	55, 26|
	55, 27|
	55, 28|
	55, 29|
	55, 30|
	55, 31|
	55, 32|
	55, 33|
	55, 34|
	55, 35|
	55, 36|
	55, 37|
	55, 38|
	55, 39|
	55, 40|
	55, 41|
	55, 42|
	53, 5|
	53, 6|
	53, 7|
	53, 8|
	53, 9|
	53, 10|
	53, 11|
	53, 54|
	53, 24|
	53, 26|
	53, 27|
	53, 28|
	53, 29|
	53, 30|
	53, 31|
	53, 32|
	53, 33|
	53, 34|
	53, 35|
	53, 36|
	53, 37|
	53, 38|
	53, 39|
	53, 40|
	53, 41|
	53, 42|
	27, 7|
	27, 8|
	27, 26|
	27, 35|
	27, 36|
	27, 37|
	28, 7|
	28, 8|
	28, 9|
	28, 35|
	28, 36|
	28, 37|
	28, 38|
	29, 7|
	29, 8|
	29, 9|
	29, 10|
	29, 36|
	29, 37|
	29, 38|
	29, 39|
	30, 7|
	30, 8|
	30, 9|
	30, 10|
	30, 11|
	30, 37|
	30, 38|
	30, 39|
	30, 40|
	31, 5|
	31, 7|
	31, 8|
	31, 9|
	31, 10|
	31, 11|
	31, 38|
	31, 39|
	31, 40|
	32, 5|
	32, 6|
	32, 7|
	32, 8|
	32, 9|
	32, 10|
	32, 11|
	32, 39|
	32, 40|
	33, 5|
	33, 6|
	33, 7|
	33, 8|
	33, 9|
	33, 10|
	33, 11|
	33, 40|
	34, 5|
	34, 6|
	34, 7|
	34, 8|
	34, 9|
	34, 10|
	34, 11|
	35, 7|
	36, 7|
	36, 8|
	37, 7|
	37, 8|
	37, 9|
	38, 7|
	38, 8|
	38, 9|
	38, 10|
	39, 7|
	39, 8|
	39, 9|
	39, 10|
	39, 11|
	40, 5|
	40, 7|
	40, 8|
	40, 9|
	40, 10|
	40, 11|
	41, 26|
	41, 35|
	42, 7|
	42, 26|
	42, 35|
	42, 36|
	43, 5|
	43, 6|
	43, 7|
	43, 8|
	43, 9|
	43, 10|
	43, 11|
	43, 12|
	43, 13|
	43, 14|
	43, 15|
	43, 16|
	43, 17|
	43, 18|
	43, 19|
	43, 20|
	43, 44|
	43, 47|
	43, 75|
	43, 72|
	43, 63|
	43, 59|
	43, 91|
	43, 83|
	43, 60|
	43, 80|
	43, 93|
	43, 64|
	43, 61|
	43, 62|
	43, 74|
	43, 76|
	43, 90|
	44, 5|
	44, 6|
	44, 7|
	44, 8|
	44, 9|
	44, 10|
	44, 11|
	44, 12|
	44, 13|
	44, 14|
	44, 15|
	44, 16|
	44, 17|
	44, 18|
	44, 19|
	44, 20|
	44, 47|
	44, 75|
	44, 72|
	44, 63|
	44, 59|
	44, 91|
	44, 83|
	44, 60|
	44, 80|
	44, 93|
	44, 64|
	44, 61|
	44, 62|
	44, 74|
	44, 76|
	44, 90|
	45, 5|
	45, 6|
	45, 7|
	45, 8|
	45, 9|
	45, 10|
	45, 11|
	45, 12|
	45, 13|
	45, 14|
	45, 15|
	45, 16|
	45, 17|
	45, 18|
	45, 19|
	45, 20|
	45, 43|
	45, 44|
	45, 47|
	45, 51|
	45, 52|
	45, 75|
	45, 72|
	45, 63|
	45, 59|
	45, 99|
	45, 73|
	45, 91|
	45, 83|
	45, 70|
	45, 60|
	45, 80|
	45, 86|
	45, 78|
	45, 58|
	45, 93|
	45, 64|
	45, 61|
	45, 62|
	45, 74|
	45, 76|
	45, 90|
	46, 5|
	46, 6|
	46, 7|
	46, 8|
	46, 9|
	46, 10|
	46, 11|
	46, 12|
	46, 13|
	46, 14|
	46, 15|
	46, 16|
	46, 17|
	46, 18|
	46, 19|
	46, 20|
	46, 43|
	46, 44|
	46, 45|
	46, 47|
	46, 50|
	46, 51|
	46, 52|
	46, 75|
	46, 72|
	46, 63|
	46, 59|
	46, 91|
	46, 83|
	46, 60|
	46, 80|
	46, 93|
	46, 64|
	46, 61|
	46, 62|
	46, 74|
	46, 76|
	46, 90|
	47, 5|
	47, 6|
	47, 7|
	47, 8|
	47, 9|
	47, 10|
	47, 11|
	47, 12|
	47, 13|
	47, 14|
	47, 15|
	47, 16|
	47, 17|
	47, 18|
	47, 19|
	47, 20|
	47, 75|
	47, 72|
	47, 63|
	47, 59|
	47, 99|
	47, 73|
	47, 91|
	47, 83|
	47, 70|
	47, 60|
	47, 80|
	47, 86|
	47, 78|
	47, 58|
	47, 93|
	47, 64|
	47, 61|
	47, 62|
	47, 74|
	47, 76|
	47, 90|
	48, 5|
	48, 6|
	48, 7|
	48, 8|
	48, 9|
	48, 10|
	48, 11|
	48, 12|
	48, 13|
	48, 14|
	48, 15|
	48, 16|
	48, 17|
	48, 18|
	48, 19|
	48, 20|
	48, 43|
	48, 44|
	48, 45|
	48, 46|
	48, 47|
	48, 49|
	48, 50|
	48, 51|
	48, 52|
	48, 75|
	48, 72|
	48, 63|
	48, 59|
	48, 99|
	48, 73|
	48, 91|
	48, 83|
	48, 70|
	48, 60|
	48, 98|
	48, 80|
	48, 77|
	48, 86|
	48, 78|
	48, 68|
	48, 58|
	48, 96|
	48, 97|
	48, 81|
	48, 82|
	48, 71|
	48, 93|
	48, 57|
	48, 92|
	48, 94|
	48, 65|
	48, 67|
	48, 64|
	48, 61|
	48, 62|
	48, 74|
	48, 76|
	48, 90|
	49, 5|
	49, 6|
	49, 7|
	49, 8|
	49, 9|
	49, 10|
	49, 11|
	49, 12|
	49, 13|
	49, 14|
	49, 15|
	49, 16|
	49, 17|
	49, 18|
	49, 19|
	49, 20|
	49, 43|
	49, 44|
	49, 45|
	49, 46|
	49, 47|
	49, 50|
	49, 51|
	49, 52|
	49, 75|
	49, 72|
	49, 63|
	49, 59|
	49, 99|
	49, 73|
	49, 91|
	49, 83|
	49, 70|
	49, 60|
	49, 98|
	49, 80|
	49, 77|
	49, 86|
	49, 78|
	49, 68|
	49, 58|
	49, 96|
	49, 97|
	49, 81|
	49, 82|
	49, 71|
	49, 93|
	49, 57|
	49, 92|
	49, 94|
	49, 65|
	49, 67|
	49, 64|
	49, 61|
	49, 62|
	49, 74|
	49, 76|
	49, 90|
	50, 5|
	50, 6|
	50, 7|
	50, 8|
	50, 9|
	50, 10|
	50, 11|
	50, 12|
	50, 13|
	50, 14|
	50, 15|
	50, 16|
	50, 17|
	50, 18|
	50, 19|
	50, 20|
	50, 43|
	50, 44|
	50, 47|
	50, 51|
	50, 52|
	50, 75|
	50, 72|
	50, 63|
	50, 59|
	50, 91|
	50, 83|
	50, 60|
	50, 80|
	50, 93|
	50, 64|
	50, 61|
	50, 62|
	50, 74|
	50, 76|
	50, 90|
	51, 5|
	51, 6|
	51, 7|
	51, 8|
	51, 9|
	51, 10|
	51, 11|
	51, 12|
	51, 13|
	51, 14|
	51, 15|
	51, 16|
	51, 17|
	51, 18|
	51, 19|
	51, 20|
	51, 43|
	51, 44|
	51, 47|
	51, 52|
	51, 75|
	51, 72|
	51, 63|
	51, 59|
	51, 91|
	51, 83|
	51, 60|
	51, 80|
	51, 93|
	51, 64|
	51, 61|
	51, 62|
	51, 74|
	51, 76|
	51, 90|
	52, 5|
	52, 6|
	52, 7|
	52, 8|
	52, 9|
	52, 10|
	52, 11|
	52, 12|
	52, 13|
	52, 14|
	52, 15|
	52, 16|
	52, 17|
	52, 18|
	52, 19|
	52, 20|
	52, 43|
	52, 44|
	52, 47|
	52, 75|
	52, 72|
	52, 63|
	52, 59|
	52, 91|
	52, 83|
	52, 60|
	52, 80|
	52, 93|
	52, 64|
	52, 61|
	52, 62|
	52, 74|
	52, 76|
	52, 90|
	72, 63|
	72, 59|
	72, 70|
	72, 60|
	72, 61|
	72, 62|
	63, 59|
	63, 60|
	63, 62|
	99, 72|
	99, 63|
	99, 59|
	99, 73|
	99, 91|
	99, 83|
	99, 70|
	99, 60|
	99, 77|
	99, 86|
	99, 78|
	99, 68|
	99, 58|
	99, 93|
	99, 64|
	99, 61|
	99, 62|
	99, 76|
	99, 90|
	73, 72|
	73, 63|
	73, 59|
	73, 91|
	73, 83|
	73, 70|
	73, 60|
	73, 86|
	73, 78|
	73, 68|
	73, 58|
	73, 64|
	73, 61|
	73, 62|
	73, 90|
	75, 72|
	75, 63|
	75, 59|
	75, 80|
	75, 93|
	75, 64|
	75, 61|
	75, 62|
	75, 76|
	75, 90|
	91, 72|
	91, 63|
	91, 59|
	91, 83|
	91, 70|
	91, 60|
	91, 78|
	91, 68|
	91, 58|
	91, 61|
	91, 62|
	83, 63|
	83, 59|
	83, 70|
	83, 60|
	83, 68|
	83, 58|
	83, 62|
	70, 59|
	70, 60|
	70, 58|
	98, 72|
	98, 63|
	98, 59|
	98, 73|
	98, 91|
	98, 83|
	98, 70|
	98, 60|
	98, 77|
	98, 86|
	98, 78|
	98, 68|
	98, 58|
	98, 64|
	98, 61|
	98, 62|
	98, 90|
	77, 72|
	77, 63|
	77, 59|
	77, 91|
	77, 83|
	77, 70|
	77, 60|
	77, 86|
	77, 78|
	77, 68|
	77, 58|
	77, 61|
	77, 62|
	86, 63|
	86, 59|
	86, 83|
	86, 70|
	86, 60|
	86, 78|
	86, 68|
	86, 58|
	86, 62|
	78, 59|
	78, 70|
	78, 60|
	78, 68|
	78, 58|
	68, 60|
	68, 58|
	80, 72|
	80, 63|
	80, 59|
	80, 93|
	80, 64|
	80, 61|
	80, 62|
	80, 90|
	96, 72|
	96, 63|
	96, 59|
	96, 91|
	96, 83|
	96, 70|
	96, 60|
	96, 86|
	96, 78|
	96, 68|
	96, 58|
	96, 97|
	96, 81|
	96, 82|
	96, 71|
	96, 57|
	96, 104|
	96, 92|
	96, 94|
	96, 65|
	96, 67|
	96, 61|
	96, 62|
	97, 63|
	97, 59|
	97, 83|
	97, 70|
	97, 60|
	97, 78|
	97, 68|
	97, 58|
	97, 81|
	97, 82|
	97, 71|
	97, 57|
	97, 92|
	97, 94|
	97, 65|
	97, 67|
	97, 62|
	81, 59|
	81, 70|
	81, 60|
	81, 68|
	81, 58|
	81, 82|
	81, 71|
	81, 57|
	81, 94|
	81, 65|
	81, 67|
	82, 60|
	82, 58|
	82, 71|
	82, 57|
	82, 65|
	82, 67|
	71, 57|
	71, 67|
	101, 63|
	101, 59|
	101, 83|
	101, 70|
	101, 60|
	101, 86|
	101, 78|
	101, 68|
	101, 58|
	101, 97|
	101, 81|
	101, 82|
	101, 71|
	101, 57|
	101, 104|
	101, 92|
	101, 94|
	101, 65|
	101, 67|
	101, 102|
	101, 87|
	101, 84|
	101, 89|
	101, 69|
	101, 61|
	101, 62|
	104, 59|
	104, 70|
	104, 60|
	104, 78|
	104, 68|
	104, 58|
	104, 81|
	104, 82|
	104, 71|
	104, 57|
	104, 92|
	104, 94|
	104, 65|
	104, 67|
	104, 87|
	104, 84|
	104, 89|
	104, 69|
	104, 62|
	92, 60|
	92, 68|
	92, 58|
	92, 82|
	92, 71|
	92, 57|
	92, 94|
	92, 65|
	92, 67|
	92, 84|
	92, 89|
	92, 69|
	94, 58|
	94, 71|
	94, 57|
	94, 65|
	94, 67|
	94, 89|
	94, 69|
	93, 72|
	93, 63|
	93, 59|
	93, 64|
	93, 61|
	93, 62|
	65, 57|
	65, 67|
	65, 69|
	103, 59|
	103, 70|
	103, 60|
	103, 78|
	103, 68|
	103, 58|
	103, 81|
	103, 82|
	103, 71|
	103, 57|
	103, 104|
	103, 92|
	103, 94|
	103, 65|
	103, 67|
	103, 102|
	103, 87|
	103, 84|
	103, 89|
	103, 69|
	103, 95|
	103, 79|
	103, 85|
	103, 88|
	103, 66|
	103, 62|
	102, 60|
	102, 68|
	102, 58|
	102, 82|
	102, 71|
	102, 57|
	102, 92|
	102, 94|
	102, 65|
	102, 67|
	102, 87|
	102, 84|
	102, 89|
	102, 69|
	102, 79|
	102, 85|
	102, 88|
	102, 66|
	87, 58|
	87, 71|
	87, 57|
	87, 94|
	87, 65|
	87, 67|
	87, 84|
	87, 89|
	87, 69|
	87, 85|
	87, 88|
	87, 66|
	84, 57|
	84, 65|
	84, 67|
	84, 89|
	84, 69|
	84, 88|
	84, 66|
	89, 67|
	89, 69|
	89, 66|
	100, 59|
	100, 70|
	100, 60|
	100, 68|
	100, 58|
	100, 82|
	100, 71|
	100, 57|
	100, 92|
	100, 94|
	100, 65|
	100, 67|
	100, 102|
	100, 87|
	100, 84|
	100, 89|
	100, 69|
	100, 95|
	100, 79|
	100, 85|
	100, 88|
	100, 66|
	95, 60|
	95, 58|
	95, 71|
	95, 57|
	95, 94|
	95, 65|
	95, 67|
	95, 87|
	95, 84|
	95, 89|
	95, 69|
	95, 79|
	95, 85|
	95, 88|
	95, 66|
	64, 63|
	64, 59|
	64, 61|
	64, 62|
	79, 57|
	79, 65|
	79, 67|
	79, 84|
	79, 89|
	79, 69|
	79, 85|
	79, 88|
	79, 66|
	85, 67|
	85, 89|
	85, 69|
	85, 88|
	85, 66|
	88, 69|
	88, 66|
	61, 59|
	61, 62|
	74, 72|
	74, 63|
	74, 59|
	74, 73|
	74, 91|
	74, 83|
	74, 70|
	74, 60|
	74, 80|
	74, 93|
	74, 64|
	74, 61|
	74, 62|
	74, 76|
	74, 90|
	76, 72|
	76, 63|
	76, 59|
	76, 91|
	76, 83|
	76, 70|
	76, 60|
	76, 93|
	76, 64|
	76, 61|
	76, 62|
	76, 90|
	90, 72|
	90, 63|
	90, 59|
	90, 83|
	90, 70|
	90, 60|
	90, 64|
	90, 61|
	90, 62|];
DisjunctiveConstraints =  [|1, 10, 62, 1|
	1, 28, 80, 1|
	1, 35, 1, 87|
	1, 37, 89, 1|
	1, 42, 1, 94|
	2, 3, 2, 1|
	2, 5, 57, 2|
	2, 8, 2, 60|
	2, 28, 2, 80|
	2, 30, 82, 2|
	2, 37, 2, 89|
	2, 39, 91, 2|
	3, 4, 3, 2|
	3, 6, 58, 3|
	3, 10, 3, 62|
	3, 30, 3, 82|
	3, 32, 84, 3|
	3, 39, 3, 91|
	4, 5, 4, 57|
	4, 32, 4, 84|
	4, 34, 86, 4|
	8, 9, 8, 7|
	9, 10, 9, 8|
	10, 11, 10, 9|
	14, 13, 14, 15|
	15, 14, 15, 16|
	16, 15, 16, 17|
	56, 17, 69, 56|
	22, 17, 69, 22|
	23, 17, 69, 23|
	54, 17, 69, 54|
	24, 17, 69, 24|
	27, 7, 27, 59|
	27, 9, 61, 27|
	27, 28, 27, 42|
	28, 8, 28, 60|
	28, 10, 62, 28|
	28, 29, 28, 27|
	26, 7, 59, 26|
	29, 9, 29, 61|
	29, 11, 63, 29|
	29, 30, 29, 28|
	30, 5, 57, 30|
	30, 10, 30, 62|
	30, 31, 30, 29|
	31, 11, 31, 63|
	31, 32, 31, 30|
	32, 5, 32, 57|
	32, 6, 58, 32|
	32, 33, 32, 31|
	33, 34, 33, 32|
	34, 6, 34, 58|
	35, 8, 60, 35|
	35, 36, 35, 26|
	36, 7, 36, 59|
	36, 9, 61, 36|
	36, 37, 36, 35|
	37, 8, 37, 60|
	37, 10, 62, 37|
	37, 38, 37, 36|
	38, 9, 38, 61|
	38, 11, 63, 38|
	38, 39, 38, 37|
	39, 5, 57, 39|
	39, 10, 39, 62|
	39, 40, 39, 38|
	40, 11, 40, 63|
	41, 7, 59, 41|
	42, 8, 60, 42|
	42, 27, 42, 41|
	43, 7, 43, 59|
	43, 11, 43, 63|
	43, 38, 43, 90|
	43, 47, 99, 43|
	43, 75, 43, 23|
	43, 98, 46, 43|
	43, 77, 25, 43|
	43, 86, 34, 43|
	43, 78, 26, 43|
	43, 68, 16, 43|
	43, 58, 6, 43|
	43, 64, 43, 12|
	44, 7, 44, 59|
	44, 11, 44, 63|
	44, 38, 44, 90|
	44, 99, 47, 44|
	44, 75, 44, 23|
	44, 98, 46, 44|
	44, 77, 25, 44|
	44, 86, 34, 44|
	44, 78, 26, 44|
	44, 68, 16, 44|
	44, 58, 6, 44|
	44, 64, 44, 12|
	45, 8, 45, 60|
	45, 20, 45, 72|
	45, 31, 45, 83|
	45, 39, 45, 91|
	45, 99, 45, 47|
	45, 81, 29, 45|
	45, 82, 30, 45|
	45, 71, 19, 45|
	45, 57, 5, 45|
	46, 7, 46, 59|
	46, 11, 46, 63|
	46, 38, 46, 90|
	46, 43, 46, 95|
	46, 44, 46, 96|
	46, 47, 99, 46|
	46, 75, 46, 23|
	46, 64, 46, 12|
	46, 74, 46, 22|
	46, 76, 46, 24|
	47, 8, 47, 60|
	47, 20, 47, 72|
	47, 98, 46, 47|
	47, 77, 25, 47|
	47, 86, 34, 47|
	47, 74, 47, 22|
	47, 76, 47, 24|
	48, 19, 48, 71|
	48, 29, 48, 81|
	48, 30, 48, 82|
	48, 40, 48, 92|
	48, 42, 48, 94|
	49, 19, 49, 71|
	49, 29, 49, 81|
	49, 30, 49, 82|
	49, 42, 49, 94|
	49, 100, 48, 49|
	49, 95, 43, 49|
	50, 7, 50, 59|
	50, 11, 50, 63|
	50, 38, 50, 90|
	50, 43, 50, 95|
	50, 44, 50, 96|
	50, 47, 99, 50|
	50, 75, 50, 23|
	50, 98, 46, 50|
	50, 64, 50, 12|
	50, 76, 50, 24|
	51, 7, 51, 59|
	51, 11, 51, 63|
	51, 38, 51, 90|
	51, 44, 51, 96|
	51, 47, 99, 51|
	51, 75, 51, 23|
	51, 98, 46, 51|
	51, 77, 25, 51|
	51, 64, 51, 12|
	52, 7, 52, 59|
	52, 11, 52, 63|
	52, 38, 52, 90|
	52, 44, 52, 96|
	52, 47, 99, 52|
	52, 75, 52, 23|
	52, 98, 46, 52|
	52, 77, 25, 52|
	52, 86, 34, 52|
	52, 78, 26, 52|
	52, 64, 52, 12|
	72, 83, 72, 64|
	63, 70, 63, 61|
	59, 60, 59, 62|
	99, 98, 99, 74|
	73, 77, 73, 76|
	91, 86, 91, 90|
	83, 78, 83, 72|
	70, 68, 70, 63|
	60, 58, 60, 59|
	98, 96, 98, 99|
	77, 97, 77, 73|
	86, 81, 86, 91|
	78, 82, 78, 83|
	68, 71, 68, 70|
	58, 57, 58, 60|
	96, 101, 96, 98|
	97, 104, 97, 77|
	81, 92, 81, 86|
	82, 94, 82, 78|
	71, 65, 71, 68|
	57, 67, 57, 58|
	101, 103, 101, 96|
	104, 102, 104, 97|
	92, 87, 92, 81|
	94, 84, 94, 82|
	65, 89, 65, 71|
	67, 69, 67, 57|
	103, 100, 103, 101|
	102, 95, 102, 104|
	87, 79, 87, 92|
	84, 85, 84, 94|
	89, 88, 89, 65|
	69, 66, 69, 67|
	74, 99, 74, 75|
	76, 73, 76, 80|
	90, 91, 90, 93|];
SoftAtomicConstraints =  [|
2, 1|
3, 2|
4, 3|
6, 5|
8, 7|
9, 8|
10, 9|
11, 10|
20, 13|
13, 14|
14, 15|
15, 16|
16, 17|
12, 18|
18, 19|
56, 25|
35, 26|
28, 27|
29, 28|
30, 29|
31, 30|
32, 31|
33, 32|
34, 33|
36, 35|
37, 36|
38, 37|
39, 38|
40, 39|
42, 41|
27, 42|
45, 50|
67, 57|
57, 58|
60, 59|
58, 60|
63, 61|
59, 62|
70, 63|
72, 64|
89, 65|
69, 67|
71, 68|
66, 69|
68, 70|
65, 71|
83, 72|
77, 73|
99, 74|
74, 75|
73, 76|
97, 77|
82, 78|
76, 80|
92, 81|
94, 82|
78, 83|
85, 84|
81, 86|
79, 87|
88, 89|
91, 90|
86, 91|
87, 92|
90, 93|
84, 94|
101, 96|
104, 97|
96, 98|
98, 99|
103, 101|
95, 102|
100, 103|
102, 104|];
DirectSuccessors =  [];
